(set-info :origin "Horn problem converted to SMT-LIB2 using Eldarica (https://github.com/uuverifiers/eldarica)")
(set-logic HORN)
(declare-fun INV_MAIN_0 (Int Int Int Int Int Int Int Int Int Int Int Int) Bool)
(assert (forall ((A Int) (B Int) (C Int) (D Int) (E Int) (F Int) (G Int) (H Int) (I Int) (J Int) (K Int) (L Int))(=> (and (and (and (and (and (and (and (and (and (not (= C (- 1))) (not (= (- D A) 1))) (not (= F B))) (= (- E D) (- 1))) (= G B)) (= (- H A) 1)) (= I D)) (= (- J C) 1)) (= (- K D) (- 1))) (= L F)) (INV_MAIN_0 A B C D E F G H I J K L))))
(assert (forall ((A Int) (B Int) (C Int) (D Int) (E Int) (F Int) (G Int) (H Int) (I Int) (J Int) (K Int) (L Int))(=> (and (and (and (and (and (and (and (and (and (not (and (= K A) (not (= L F)))) (not (= C (- 1)))) (not (= (- D A) 1))) (not (= F B))) (not (= (- K D) (- 1)))) (= (- E D) (- 1))) (= G B)) (= (- H A) 1)) (= I D)) (= (- J C) 1)) (INV_MAIN_0 A B C D E F G H I J K L))))
(assert (forall ((A Int) (B Int) (C Int) (D Int) (E Int) (F Int) (G Int) (H Int) (I Int) (J Int) (K Int) (L Int))(=> (and (and (and (and (and (and (and (and (not (and (= F B) (or (or (= (- E D) (- 1)) (= E A)) (and (= K E) (not (= L B)))))) (not (and (= K A) (or (= L B) (or (and (= (- E D) (- 1)) (not (= L F))) (and (= E A) (not (= L F)))))))) (not (and (= (- K D) (- 1)) (or (= L B) (or (and (= (- E D) (- 1)) (not (= L F))) (and (= E A) (not (= L F)))))))) (not (and (= K E) (not (= L F))))) (not (= C (- 1)))) (= G B)) (= (- H A) 1)) (= I D)) (= (- J C) 1)) (INV_MAIN_0 A B C D E F G H I J K L))))
(assert (forall ((A Int) (B Int) (C Int) (D Int) (E Int) (F Int) (G Int) (H Int) (I Int) (J Int) (K Int) (L Int))(=> (and (and (and (and (and (and (and (and (and (not (and (= E A) (not (= L F)))) (not (= C (- 1)))) (not (= (- D A) 1))) (not (= (- E D) (- 1)))) (not (= L B))) (= G B)) (= (- H A) 1)) (= I D)) (= (- J C) 1)) (= (- K D) (- 1))) (INV_MAIN_0 A B C D E F G H I J K L))))
(assert (forall ((A Int) (B Int) (C Int) (D Int) (E Int) (F Int) (G Int) (H Int) (I Int) (J Int) (K Int) (L Int) (M Int) (N Int) (O Int) (P Int) (Q Int) (R Int) (S Int) (T Int) (U Int) (V Int) (W Int) (X Int)) (not (and (and (and (and (and (and (and (and (and (and (and (and (and (and (and (and (and (and (and (and (and (and (INV_MAIN_0 A B C D E F G H I J K L) (INV_MAIN_0 M N O P Q R S T U V W X)) (not (and (= T P) (not (= L S))))) (not (and (= U P) (not (= L S))))) (not (= O 0))) (not (= (- P M) 1))) (not (= V 1))) (not (= L N))) (= (- Q M) 1)) (= R N)) (= W T)) (= X S)) (= A M)) (= B N)) (= C O)) (= D P)) (= (- E M) 1)) (= F N)) (= G S)) (= H T)) (= I U)) (= J V)) (= K P)))))
(assert (forall ((A Int) (B Int) (C Int) (D Int) (E Int) (F Int) (G Int) (H Int) (I Int) (J Int) (K Int) (L Int)) (not (and (and (and (and (and (and (and (and (and (and (INV_MAIN_0 A B C D E F G H I J K L) (not (= C 0))) (not (= (- D A) 1))) (not (= G B))) (not (= H D))) (not (= J 1))) (= (- E A) 1)) (= F B)) (= I D)) (= K H)) (= L G)))))
(assert (forall ((A Int) (B Int) (C Int) (D Int) (E Int) (F Int) (G Int) (H Int) (I Int) (J Int) (K Int) (L Int) (M Int) (N Int) (O Int) (P Int) (Q Int) (R Int) (S Int) (T Int) (U Int) (V Int) (W Int) (X Int) (Y Int) (Z Int) (A1 Int) (B1 Int) (C1 Int) (D1 Int) (E1 Int) (F1 Int) (G1 Int) (H1 Int) (I1 Int) (J1 Int) (K1 Int) (L1 Int) (M1 Int) (N1 Int) (O1 Int) (P1 Int) (Q1 Int) (R1 Int) (S1 Int) (T1 Int) (U1 Int) (V1 Int)) (not (and (and (and (and (and (and (and (and (and (and (and (and (and (and (and (and (and (and (and (and (and (and (and (and (and (and (and (and (and (and (and (and (and (and (and (and (and (and (and (and (and (and (and (and (and (and (and (INV_MAIN_0 A B C D E F G H I J K L) (INV_MAIN_0 M N O P Q R S T U V W X)) (INV_MAIN_0 Y Z A1 B1 C1 D1 E1 F1 G1 H1 I1 J1)) (INV_MAIN_0 K1 L1 M1 N1 O1 P1 Q1 R1 S1 T1 U1 V1)) (not (and (= (- O1 K1) 1) (not (= P1 L1))))) (not (and (= O1 N1) (not (= P1 L1))))) (not (and (= R1 O1) (not (= V1 Q1))))) (not (and (= S1 O1) (not (= V1 Q1))))) (not (= M1 0))) (not (= T1 1))) (not (= V1 P1))) (= U1 O1)) (= Y K1)) (= Z L1)) (= A1 M1)) (= B1 N1)) (= C1 O1)) (= D1 P1)) (= E1 Q1)) (= F1 R1)) (= G1 S1)) (= H1 T1)) (= I1 R1)) (= J1 Q1)) (= M K1)) (= N L1)) (= O M1)) (= P N1)) (= (- Q K1) 1)) (= R L1)) (= S Q1)) (= T R1)) (= U S1)) (= V T1)) (= W O1)) (= X V1)) (= A K1)) (= B L1)) (= C M1)) (= D N1)) (= (- E K1) 1)) (= F L1)) (= G Q1)) (= H R1)) (= I S1)) (= J T1)) (= K R1)) (= L Q1)))))
(assert (forall ((A Int) (B Int) (C Int) (D Int) (E Int) (F Int) (G Int) (H Int) (I Int) (J Int) (K Int) (L Int) (M Int) (N Int) (O Int) (P Int) (Q Int) (R Int) (S Int) (T Int) (U Int) (V Int) (W Int) (X Int)) (not (and (and (and (and (and (and (and (and (and (and (and (and (and (and (and (and (and (and (and (and (and (and (INV_MAIN_0 A B C D E F G H I J K L) (INV_MAIN_0 M N O P Q R S T U V W X)) (not (and (= (- Q M) 1) (not (= R N))))) (not (and (= Q P) (not (= R N))))) (not (= O 0))) (not (= S R))) (not (= T Q))) (not (= V 1))) (= U Q)) (= W T)) (= X S)) (= A M)) (= B N)) (= C O)) (= D P)) (= (- E M) 1)) (= F N)) (= G S)) (= H T)) (= I Q)) (= J V)) (= K T)) (= L S)))))
(assert (forall ((A Int) (B Int) (C Int) (D Int) (E Int) (F Int) (G Int) (H Int) (I Int) (J Int) (K Int) (L Int)) (not (and (and (and (and (and (and (and (INV_MAIN_0 A B C D E F G H I J K L) (not (= C 0))) (not (= I D))) (not (= J 1))) (= (- E A) 1)) (= F B)) (= K H)) (= L G)))))
(assert (forall ((A Int) (B Int) (C Int) (D Int) (E Int) (F Int) (G Int) (H Int) (I Int) (J Int) (K Int) (L Int) (M Int) (N Int) (O Int) (P Int) (Q Int) (R Int) (S Int) (T Int) (U Int) (V Int) (W Int) (X Int) (Y Int) (Z Int) (A1 Int) (B1 Int) (C1 Int) (D1 Int) (E1 Int) (F1 Int) (G1 Int) (H1 Int) (I1 Int) (J1 Int)) (not (and (and (and (and (and (and (and (and (and (and (and (and (and (and (and (and (and (and (and (and (and (and (and (and (and (and (and (and (INV_MAIN_0 A B C D E F G H I J K L) (INV_MAIN_0 M N O P Q R S T U V W X)) (INV_MAIN_0 Y Z A1 B1 C1 D1 E1 F1 G1 H1 I1 J1)) (not (and (= (- C1 Y) 1) (not (= N D1))))) (not (= A1 0))) (not (= B1 (- 1)))) (= M Y)) (= O A1)) (= P B1)) (= Q C1)) (= R D1)) (= S E1)) (= T F1)) (= U G1)) (= V 1)) (= W I1)) (= X J1)) (= A Y)) (= B N)) (= C A1)) (= D B1)) (= (- E Y) 1)) (= F N)) (= G E1)) (= H F1)) (= I G1)) (= J 1)) (= K I1)) (= L J1)))))
(assert (forall ((A Int) (B Int) (C Int) (D Int) (E Int) (F Int) (G Int) (H Int) (I Int) (J Int) (K Int) (L Int) (M Int) (N Int) (O Int) (P Int) (Q Int) (R Int) (S Int) (T Int) (U Int) (V Int) (W Int) (X Int)) (not (and (and (and (and (and (and (and (and (and (and (and (and (and (and (and (and (and (and (and (INV_MAIN_0 A B C D E F G H I J K L) (INV_MAIN_0 M N O P Q R S T U V W X)) (not (and (= (- Q M) 1) (not (= R N))))) (not (and (= Q P) (not (= R N))))) (not (= O 0))) (not (= X R))) (= V 1)) (= W Q)) (= A M)) (= B N)) (= C O)) (= D P)) (= (- E M) 1)) (= F N)) (= G S)) (= H T)) (= I U)) (= J 1)) (= K Q)) (= L X)))))
(assert (forall ((A Int) (B Int) (C Int) (D Int) (E Int) (F Int) (G Int) (H Int) (I Int) (J Int) (K Int) (L Int)) (not (and (and (and (and (and (and (and (INV_MAIN_0 A B C D E F G H I J K L) (not (= C 0))) (not (= (- D A) 1))) (not (= L B))) (= (- E A) 1)) (= F B)) (= J 1)) (= K D)))))
(assert (forall ((A Int) (B Int) (C Int) (D Int) (E Int) (F Int) (G Int) (H Int) (I Int) (J Int) (K Int) (L Int) (M Int) (N Int) (O Int) (P Int) (Q Int) (R Int) (S Int) (T Int) (U Int) (V Int) (W Int) (X Int) (Y Int) (Z Int) (A1 Int) (B1 Int) (C1 Int) (D1 Int) (E1 Int) (F1 Int) (G1 Int) (H1 Int) (I1 Int) (J1 Int)) (not (and (and (and (and (and (and (and (and (and (and (and (and (and (and (and (and (and (and (and (and (and (and (and (and (and (and (and (and (INV_MAIN_0 A B C D E F G H I J K L) (INV_MAIN_0 M N O P Q R S T U V W X)) (INV_MAIN_0 Y Z A1 B1 C1 D1 E1 F1 G1 H1 I1 J1)) (not (and (= I1 F1) (not (= S J1))))) (not (= G1 (- 1)))) (not (= H1 1))) (= M Y)) (= N Z)) (= O 0)) (= P B1)) (= Q C1)) (= R D1)) (= T F1)) (= U G1)) (= V H1)) (= W I1)) (= X J1)) (= A Y)) (= B Z)) (= C 0)) (= D B1)) (= E C1)) (= F D1)) (= G S)) (= H F1)) (= I G1)) (= J H1)) (= K F1)) (= L S)))))
(assert (forall ((A Int) (B Int) (C Int) (D Int) (E Int) (F Int) (G Int) (H Int) (I Int) (J Int) (K Int) (L Int) (M Int) (N Int) (O Int) (P Int) (Q Int) (R Int) (S Int) (T Int) (U Int) (V Int) (W Int) (X Int)) (not (and (and (and (and (and (and (and (and (and (and (and (and (and (and (and (and (and (and (and (INV_MAIN_0 A B C D E F G H I J K L) (INV_MAIN_0 M N O P Q R S T U V W X)) (not (and (= T Q) (not (= X S))))) (not (and (= U Q) (not (= X S))))) (not (= V 1))) (not (= X R))) (= O 0)) (= W Q)) (= A M)) (= B N)) (= C 0)) (= D P)) (= E Q)) (= F R)) (= G S)) (= H T)) (= I U)) (= J V)) (= K T)) (= L S)))))
(assert (forall ((A Int) (B Int) (C Int) (D Int) (E Int) (F Int) (G Int) (H Int) (I Int) (J Int) (K Int) (L Int)) (not (and (and (and (and (and (and (and (INV_MAIN_0 A B C D E F G H I J K L) (not (= G F))) (not (= H E))) (not (= J 1))) (= C 0)) (= I E)) (= K H)) (= L G)))))
(assert (forall ((A Int) (B Int) (C Int) (D Int) (E Int) (F Int) (G Int) (H Int) (I Int) (J Int) (K Int) (L Int)) (not (and (and (and (and (INV_MAIN_0 A B C D E F G H I J K L) (not (= L F))) (= C 0)) (= J 1)) (= K E)))))
(assert (forall ((A Int) (B Int) (C Int) (D Int) (E Int) (F Int) (G Int) (H Int) (I Int) (J Int) (K Int) (L Int) (M Int) (N Int) (O Int) (P Int) (Q Int) (R Int) (S Int) (T Int) (U Int) (V Int) (W Int) (X Int) (Y Int) (Z Int) (A1 Int) (B1 Int) (C1 Int) (D1 Int) (E1 Int) (F1 Int) (G1 Int) (H1 Int) (I1 Int) (J1 Int) (K1 Int) (L1 Int) (M1 Int) (N1 Int) (O1 Int) (P1 Int) (Q1 Int) (R1 Int) (S1 Int) (T1 Int) (U1 Int) (V1 Int) (W1 Int) (X1 Int) (Y1 Int) (Z1 Int) (A2 Int) (B2 Int) (C2 Int) (D2 Int) (E2 Int) (F2 Int) (G2 Int) (H2 Int))(=> (and (and (and (and (and (and (and (and (and (and (and (and (and (and (and (and (and (and (and (and (and (and (and (and (and (and (and (and (and (and (and (and (and (and (and (and (and (and (and (and (and (and (and (and (and (and (and (and (and (and (and (and (and (and (and (and (and (INV_MAIN_0 M N O P Q R S T U V W X) (INV_MAIN_0 Y Z A1 B1 C1 D1 E1 F1 G1 H1 I1 J1)) (INV_MAIN_0 K1 L1 M1 N1 O1 P1 Q1 R1 S1 T1 U1 V1)) (INV_MAIN_0 W1 X1 Y1 Z1 A2 B2 C2 D2 E2 F2 G2 H2)) (not (and (= E A) (not (= D1 F))))) (not (and (= (- E D) (- 1)) (not (= D1 F))))) (not (and (= (- K H) (- 1)) (not (= V1 L))))) (not (and (= (- K I) (- 1)) (not (= V1 L))))) (not (= C (- 1)))) (not (= J 0))) (not (= V1 G))) (not (= D1 B))) (= (- W1 A) (- 1))) (= X1 B)) (= (- Y1 C) 1)) (= (- Z1 D) (- 1))) (= A2 E)) (= B2 F)) (= C2 G)) (= (- D2 H) (- 1))) (= (- E2 I) (- 1))) (= (- F2 J) 1)) (= G2 K)) (= H2 L)) (= (- K1 A) (- 1))) (= L1 B)) (= (- M1 C) 1)) (= (- N1 D) (- 1))) (= O1 E)) (= P1 F)) (= Q1 G)) (= (- R1 H) (- 1))) (= (- S1 I) (- 1))) (= (- T1 J) 1)) (= (- U1 H) (- 1))) (= (- Y A) (- 1))) (= Z B)) (= (- A1 C) 1)) (= (- B1 D) (- 1))) (= C1 A)) (= E1 G)) (= (- F1 H) (- 1))) (= (- G1 I) (- 1))) (= (- H1 J) 1)) (= I1 K)) (= J1 L)) (= (- M A) (- 1))) (= N B)) (= (- O C) 1)) (= (- P D) (- 1))) (= Q A)) (= R D1)) (= S G)) (= (- T H) (- 1))) (= (- U I) (- 1))) (= (- V J) 1)) (= (- W H) (- 1))) (= X V1)) (INV_MAIN_0 A B C D E F G H I J K L))))
(assert (forall ((A Int) (B Int) (C Int) (D Int) (E Int) (F Int) (G Int) (H Int) (I Int) (J Int) (K Int) (L Int) (M Int) (N Int) (O Int) (P Int) (Q Int) (R Int) (S Int) (T Int) (U Int) (V Int) (W Int) (X Int) (Y Int) (Z Int) (A1 Int) (B1 Int) (C1 Int) (D1 Int) (E1 Int) (F1 Int) (G1 Int) (H1 Int) (I1 Int) (J1 Int))(=> (and (and (and (and (and (and (and (and (and (and (and (and (and (and (and (and (and (and (and (and (and (and (and (and (and (and (and (and (and (and (and (and (INV_MAIN_0 M N O P Q R S T U V W X) (INV_MAIN_0 Y Z A1 B1 C1 D1 E1 F1 G1 H1 I1 J1)) (not (and (= E A) (not (= R F))))) (not (and (= (- E D) (- 1)) (not (= R F))))) (not (= C (- 1)))) (not (= I H))) (not (= J 0))) (not (= L G))) (not (= R B))) (= (- K I) (- 1))) (= (- Y A) (- 1))) (= Z B)) (= (- A1 C) 1)) (= (- B1 D) (- 1))) (= C1 E)) (= D1 F)) (= E1 G)) (= (- F1 H) (- 1))) (= (- G1 I) (- 1))) (= (- H1 J) 1)) (= (- I1 H) (- 1))) (= J1 L)) (= (- M A) (- 1))) (= N B)) (= (- O C) 1)) (= (- P D) (- 1))) (= Q A)) (= S G)) (= (- T H) (- 1))) (= (- U I) (- 1))) (= (- V J) 1)) (= (- W H) (- 1))) (= X L)) (INV_MAIN_0 A B C D E F G H I J K L))))
(assert (forall ((A Int) (B Int) (C Int) (D Int) (E Int) (F Int) (G Int) (H Int) (I Int) (J Int) (K Int) (L Int) (M Int) (N Int) (O Int) (P Int) (Q Int) (R Int) (S Int) (T Int) (U Int) (V Int) (W Int) (X Int))(=> (and (and (and (and (and (and (and (and (and (and (and (and (and (and (and (and (and (and (and (and (INV_MAIN_0 M N O P Q R S T U V W X) (not (= C (- 1)))) (not (= (- D A) 1))) (not (= F B))) (not (= I H))) (not (= J 0))) (not (= L G))) (= (- E D) (- 1))) (= (- K I) (- 1))) (= (- M A) (- 1))) (= N B)) (= (- O C) 1)) (= (- P D) (- 1))) (= Q A)) (= R F)) (= S G)) (= (- T H) (- 1))) (= (- U I) (- 1))) (= (- V J) 1)) (= (- W H) (- 1))) (= X L)) (INV_MAIN_0 A B C D E F G H I J K L))))
(assert (forall ((A Int) (B Int) (C Int) (D Int) (E Int) (F Int) (G Int) (H Int) (I Int) (J Int) (K Int) (L Int) (M Int) (N Int) (O Int) (P Int) (Q Int) (R Int) (S Int) (T Int) (U Int) (V Int) (W Int) (X Int) (Y Int) (Z Int) (A1 Int) (B1 Int) (C1 Int) (D1 Int) (E1 Int) (F1 Int) (G1 Int) (H1 Int) (I1 Int) (J1 Int))(=> (and (and (and (and (and (and (and (and (and (and (and (and (and (and (and (and (and (and (and (and (and (and (and (and (and (and (and (and (and (and (and (and (INV_MAIN_0 M N O P Q R S T U V W X) (INV_MAIN_0 Y Z A1 B1 C1 D1 E1 F1 G1 H1 I1 J1)) (not (and (= (- K H) (- 1)) (not (= X L))))) (not (and (= (- K I) (- 1)) (not (= X L))))) (not (= C (- 1)))) (not (= (- D A) 1))) (not (= F B))) (not (= J 0))) (not (= X G))) (= (- E D) (- 1))) (= (- Y A) (- 1))) (= Z B)) (= (- A1 C) 1)) (= (- B1 D) (- 1))) (= C1 A)) (= D1 F)) (= E1 G)) (= (- F1 H) (- 1))) (= (- G1 I) (- 1))) (= (- H1 J) 1)) (= I1 K)) (= J1 L)) (= (- M A) (- 1))) (= N B)) (= (- O C) 1)) (= (- P D) (- 1))) (= Q A)) (= R F)) (= S G)) (= (- T H) (- 1))) (= (- U I) (- 1))) (= (- V J) 1)) (= (- W H) (- 1))) (INV_MAIN_0 A B C D E F G H I J K L))))
(assert (forall ((A Int) (B Int) (C Int) (D Int) (E Int) (F Int) (G Int) (H Int) (I Int) (J Int) (K Int) (L Int) (M Int) (N Int) (O Int) (P Int) (Q Int) (R Int) (S Int) (T Int) (U Int) (V Int) (W Int) (X Int) (Y Int) (Z Int) (A1 Int) (B1 Int) (C1 Int) (D1 Int) (E1 Int) (F1 Int) (G1 Int) (H1 Int) (I1 Int) (J1 Int))(=> (and (and (and (and (and (and (and (and (and (and (and (and (and (and (and (and (and (and (and (and (and (and (and (and (and (and (and (and (and (and (INV_MAIN_0 M N O P Q R S T U V W X) (INV_MAIN_0 Y Z A1 B1 C1 D1 E1 F1 G1 H1 I1 J1)) (not (and (= K H) (not (= L G))))) (not (= C (- 1)))) (not (= (- D A) 1))) (not (= F B))) (= (- E D) (- 1))) (= (- Y A) (- 1))) (= Z B)) (= (- A1 C) 1)) (= (- B1 D) (- 1))) (= C1 A)) (= D1 F)) (= E1 G)) (= F1 H)) (= G1 I)) (= H1 J)) (= I1 K)) (= J1 L)) (= (- M A) (- 1))) (= N B)) (= (- O C) 1)) (= (- P D) (- 1))) (= Q A)) (= R F)) (= S G)) (= T H)) (= U I)) (= V J)) (= W H)) (= X G)) (INV_MAIN_0 A B C D E F G H I J K L))))
(assert (forall ((A Int) (B Int) (C Int) (D Int) (E Int) (F Int) (G Int) (H Int) (I Int) (J Int) (K Int) (L Int) (M Int) (N Int) (O Int) (P Int) (Q Int) (R Int) (S Int) (T Int) (U Int) (V Int) (W Int) (X Int) (Y Int) (Z Int) (A1 Int) (B1 Int) (C1 Int) (D1 Int) (E1 Int) (F1 Int) (G1 Int) (H1 Int) (I1 Int) (J1 Int) (K1 Int) (L1 Int) (M1 Int) (N1 Int) (O1 Int) (P1 Int) (Q1 Int) (R1 Int) (S1 Int) (T1 Int) (U1 Int) (V1 Int) (W1 Int) (X1 Int) (Y1 Int) (Z1 Int) (A2 Int) (B2 Int) (C2 Int) (D2 Int) (E2 Int) (F2 Int) (G2 Int) (H2 Int))(=> (and (and (and (and (and (and (and (and (and (and (and (and (and (and (and (and (and (and (and (and (and (and (and (and (and (and (and (and (and (and (and (and (and (and (and (and (and (and (and (and (and (and (and (and (and (and (and (and (and (and (and (and (and (and (and (INV_MAIN_0 M N O P Q R S T U V W X) (INV_MAIN_0 Y Z A1 B1 C1 D1 E1 F1 G1 H1 I1 J1)) (INV_MAIN_0 K1 L1 M1 N1 O1 P1 Q1 R1 S1 T1 U1 V1)) (INV_MAIN_0 W1 X1 Y1 Z1 A2 B2 C2 D2 E2 F2 G2 H2)) (not (and (= E A) (not (= D1 F))))) (not (and (= (- E D) (- 1)) (not (= D1 F))))) (not (and (= K H) (not (= L G))))) (not (= C (- 1)))) (not (= D1 B))) (= (- W1 A) (- 1))) (= X1 B)) (= (- Y1 C) 1)) (= (- Z1 D) (- 1))) (= A2 E)) (= B2 F)) (= C2 G)) (= D2 H)) (= E2 I)) (= F2 J)) (= G2 K)) (= H2 L)) (= (- K1 A) (- 1))) (= L1 B)) (= (- M1 C) 1)) (= (- N1 D) (- 1))) (= O1 E)) (= P1 F)) (= Q1 G)) (= R1 H)) (= S1 I)) (= T1 J)) (= U1 H)) (= V1 G)) (= (- Y A) (- 1))) (= Z B)) (= (- A1 C) 1)) (= (- B1 D) (- 1))) (= C1 A)) (= E1 G)) (= F1 H)) (= G1 I)) (= H1 J)) (= I1 K)) (= J1 L)) (= (- M A) (- 1))) (= N B)) (= (- O C) 1)) (= (- P D) (- 1))) (= Q A)) (= R D1)) (= S G)) (= T H)) (= U I)) (= V J)) (= W H)) (= X G)) (INV_MAIN_0 A B C D E F G H I J K L))))
(assert (forall ((A Int) (B Int) (C Int) (D Int) (E Int) (F Int) (G Int) (H Int) (I Int) (J Int) (K Int) (L Int) (M Int) (N Int) (O Int) (P Int) (Q Int) (R Int) (S Int) (T Int) (U Int) (V Int) (W Int) (X Int))(=> (and (and (and (and (and (and (and (and (and (and (and (and (and (and (and (and (and (INV_MAIN_0 M N O P Q R S T U V W X) (not (= C (- 1)))) (not (= (- D A) 1))) (not (= F B))) (= (- E D) (- 1))) (= J 1)) (= (- M A) (- 1))) (= N B)) (= (- O C) 1)) (= (- P D) (- 1))) (= Q A)) (= R F)) (= S G)) (= T H)) (= U I)) (= V 1)) (= W K)) (= X L)) (INV_MAIN_0 A B C D E F G H I J K L))))
(assert (forall ((A Int) (B Int) (C Int) (D Int) (E Int) (F Int) (G Int) (H Int) (I Int) (J Int) (K Int) (L Int) (M Int) (N Int) (O Int) (P Int) (Q Int) (R Int) (S Int) (T Int) (U Int) (V Int) (W Int) (X Int) (Y Int) (Z Int) (A1 Int) (B1 Int) (C1 Int) (D1 Int) (E1 Int) (F1 Int) (G1 Int) (H1 Int) (I1 Int) (J1 Int))(=> (and (and (and (and (and (and (and (and (and (and (and (and (and (and (and (and (and (and (and (and (and (and (and (and (and (and (and (and (and (INV_MAIN_0 M N O P Q R S T U V W X) (INV_MAIN_0 Y Z A1 B1 C1 D1 E1 F1 G1 H1 I1 J1)) (not (and (= E A) (not (= R F))))) (not (and (= (- E D) (- 1)) (not (= R F))))) (not (= C (- 1)))) (not (= R B))) (= J 1)) (= (- Y A) (- 1))) (= Z B)) (= (- A1 C) 1)) (= (- B1 D) (- 1))) (= C1 E)) (= D1 F)) (= E1 G)) (= F1 H)) (= G1 I)) (= H1 1)) (= I1 K)) (= J1 L)) (= (- M A) (- 1))) (= N B)) (= (- O C) 1)) (= (- P D) (- 1))) (= Q A)) (= S G)) (= T H)) (= U I)) (= V 1)) (= W K)) (= X L)) (INV_MAIN_0 A B C D E F G H I J K L))))
(assert (forall ((A Int) (B Int) (C Int) (D Int) (E Int) (F Int) (G Int) (H Int) (I Int) (J Int) (K Int) (L Int) (M Int) (N Int) (O Int) (P Int) (Q Int) (R Int) (S Int) (T Int) (U Int) (V Int) (W Int) (X Int) (Y Int) (Z Int) (A1 Int) (B1 Int) (C1 Int) (D1 Int) (E1 Int) (F1 Int) (G1 Int) (H1 Int) (I1 Int) (J1 Int))(=> (and (and (and (and (and (and (and (and (and (and (and (and (and (and (and (and (and (and (and (and (and (and (and (and (and (and (and (and (and (INV_MAIN_0 M N O P Q R S T U V W X) (INV_MAIN_0 Y Z A1 B1 C1 D1 E1 F1 G1 H1 I1 J1)) (not (and (= (- K H) (- 1)) (not (= X L))))) (not (and (= (- K I) (- 1)) (not (= X L))))) (not (= J 0))) (not (= X G))) (= C 0)) (= Y A)) (= Z B)) (= A1 0)) (= B1 D)) (= C1 E)) (= D1 F)) (= E1 G)) (= (- F1 H) (- 1))) (= (- G1 I) (- 1))) (= (- H1 J) 1)) (= I1 K)) (= J1 L)) (= M A)) (= N B)) (= O 0)) (= P D)) (= Q E)) (= R F)) (= S G)) (= (- T H) (- 1))) (= (- U I) (- 1))) (= (- V J) 1)) (= (- W H) (- 1))) (INV_MAIN_0 A B C D E F G H I J K L))))
(assert (forall ((A Int) (B Int) (C Int) (D Int) (E Int) (F Int) (G Int) (H Int) (I Int) (J Int) (K Int) (L Int) (M Int) (N Int) (O Int) (P Int) (Q Int) (R Int) (S Int) (T Int) (U Int) (V Int) (W Int) (X Int))(=> (and (and (and (and (and (and (and (and (and (and (and (and (and (and (and (and (and (INV_MAIN_0 M N O P Q R S T U V W X) (not (= I H))) (not (= J 0))) (not (= L G))) (= C 0)) (= (- K I) (- 1))) (= M A)) (= N B)) (= O 0)) (= P D)) (= Q E)) (= R F)) (= S G)) (= (- T H) (- 1))) (= (- U I) (- 1))) (= (- V J) 1)) (= (- W H) (- 1))) (= X L)) (INV_MAIN_0 A B C D E F G H I J K L))))
(assert (forall ((A Int) (B Int) (C Int) (D Int) (E Int) (F Int) (G Int) (H Int) (I Int) (J Int) (K Int) (L Int) (M Int) (N Int) (O Int) (P Int) (Q Int) (R Int) (S Int) (T Int) (U Int) (V Int) (W Int) (X Int) (Y Int) (Z Int) (A1 Int) (B1 Int) (C1 Int) (D1 Int) (E1 Int) (F1 Int) (G1 Int) (H1 Int) (I1 Int) (J1 Int))(=> (and (and (and (and (and (and (and (and (and (and (and (and (and (and (and (and (and (and (and (and (and (and (and (and (and (and (and (and (and (and (INV_MAIN_0 M N O P Q R S T U V W X) (INV_MAIN_0 Y Z A1 B1 C1 D1 E1 F1 G1 H1 I1 J1)) (not (and (= (- E A) 1) (not (= F B))))) (not (= I H))) (not (= J 0))) (not (= L G))) (= (- K I) (- 1))) (= Y A)) (= Z B)) (= A1 C)) (= B1 D)) (= C1 E)) (= D1 F)) (= E1 G)) (= (- F1 H) (- 1))) (= (- G1 I) (- 1))) (= (- H1 J) 1)) (= (- I1 H) (- 1))) (= J1 L)) (= M A)) (= N B)) (= O C)) (= P D)) (= (- Q A) 1)) (= R B)) (= S G)) (= (- T H) (- 1))) (= (- U I) (- 1))) (= (- V J) 1)) (= (- W H) (- 1))) (= X L)) (INV_MAIN_0 A B C D E F G H I J K L))))
(assert (forall ((A Int) (B Int) (C Int) (D Int) (E Int) (F Int) (G Int) (H Int) (I Int) (J Int) (K Int) (L Int) (M Int) (N Int) (O Int) (P Int) (Q Int) (R Int) (S Int) (T Int) (U Int) (V Int) (W Int) (X Int) (Y Int) (Z Int) (A1 Int) (B1 Int) (C1 Int) (D1 Int) (E1 Int) (F1 Int) (G1 Int) (H1 Int) (I1 Int) (J1 Int) (K1 Int) (L1 Int) (M1 Int) (N1 Int) (O1 Int) (P1 Int) (Q1 Int) (R1 Int) (S1 Int) (T1 Int) (U1 Int) (V1 Int) (W1 Int) (X1 Int) (Y1 Int) (Z1 Int) (A2 Int) (B2 Int) (C2 Int) (D2 Int) (E2 Int) (F2 Int) (G2 Int) (H2 Int))(=> (and (and (and (and (and (and (and (and (and (and (and (and (and (and (and (and (and (and (and (and (and (and (and (and (and (and (and (and (and (and (and (and (and (and (and (and (and (and (and (and (and (and (and (and (and (and (and (and (and (and (and (and (and (and (and (INV_MAIN_0 M N O P Q R S T U V W X) (INV_MAIN_0 Y Z A1 B1 C1 D1 E1 F1 G1 H1 I1 J1)) (INV_MAIN_0 K1 L1 M1 N1 O1 P1 Q1 R1 S1 T1 U1 V1)) (INV_MAIN_0 W1 X1 Y1 Z1 A2 B2 C2 D2 E2 F2 G2 H2)) (not (and (= (- E A) 1) (not (= F B))))) (not (and (= (- K H) (- 1)) (not (= V1 L))))) (not (and (= (- K I) (- 1)) (not (= V1 L))))) (not (= J 0))) (not (= V1 G))) (= W1 A)) (= X1 B)) (= Y1 C)) (= Z1 D)) (= A2 E)) (= B2 F)) (= C2 G)) (= (- D2 H) (- 1))) (= (- E2 I) (- 1))) (= (- F2 J) 1)) (= G2 K)) (= H2 L)) (= K1 A)) (= L1 B)) (= M1 C)) (= N1 D)) (= O1 E)) (= P1 F)) (= Q1 G)) (= (- R1 H) (- 1))) (= (- S1 I) (- 1))) (= (- T1 J) 1)) (= (- U1 H) (- 1))) (= Y A)) (= Z B)) (= A1 C)) (= B1 D)) (= (- C1 A) 1)) (= D1 B)) (= E1 G)) (= (- F1 H) (- 1))) (= (- G1 I) (- 1))) (= (- H1 J) 1)) (= I1 K)) (= J1 L)) (= M A)) (= N B)) (= O C)) (= P D)) (= (- Q A) 1)) (= R B)) (= S G)) (= (- T H) (- 1))) (= (- U I) (- 1))) (= (- V J) 1)) (= (- W H) (- 1))) (= X V1)) (INV_MAIN_0 A B C D E F G H I J K L))))
(check-sat)
